
%FILE DATA:	Soccer Computational Problem for MiniZinc Models	%
%AUTHOR:	Jack Wall	%
%CONTACT:  	116397063@umail.ucc.ie			%
%LAST UPDATE:	03/19/2020, 16:23:28						%
%DESCRIPTION: 	270 games played with 36 games left				%


n=18; %number of teams

%Games to play
games=[|5,11|13,12|8,14|13,18|1,2|9,18|17,18|2,15|17,8|2,1|2,13|3,5|1,8|11,1|7,10|10,8|7,18|13,15|15,3|15,14|17,9|12,13|13,6|8,4|5,18|8,18|6,14|4,11|7,14|5,12|13,9|10,15|2,16|2,6|18,13|1,10|];

%Initial points
iPoints=[45,39,43,44,48,49,44,33,48,41,38,21,34,33,39,49,44,38];

%POSITION CONSTRAINTS
% [|teamID, operator, position|...]
% operators index:
%  1 for =  operator
%  2 for >  operator
%  3 for >= operator
%  4 for <  operator
%  5 for <= operator
positionConstraints=[|1,4,2|18,4,3|5,5,3|];